Ba  O Zr  H                             
   1.00000000000000     
    12.5760000000000005    0.0000000000000000    0.0000000000000000
     0.0000000000000000   12.5760000000000005    0.0000000000000000
     0.0000000000000000    0.0000000000000000   12.5760000000000005
   Ba   O    Zr   H 
    27    81    27     1
Direct
  0.9953728189971062  0.9998950265215810  0.0014268631424426
  0.0019188134016388  0.0027368277365293  0.3333124556859589
  0.9967196667082397  0.0044933880148265  0.6716234715516644
  0.9996600106618933  0.3299461556632335  0.9989300808195242
  0.0048825520112845  0.3322369888607325  0.3343856349437703
  0.9984749949212854  0.3322967689403860  0.6627228977551626
  0.0031116196816850  0.6715848752621064  0.9987726532339701
  0.0009058630193285  0.6651219664882164  0.3288840602116764
  0.9956737109608822  0.6567875353465009  0.6716565923104765
  0.3415072406810324  0.0016937890352710  0.0011889517175429
  0.3331736087178904  0.0000922036908570  0.3286048747975687
  0.3301070070082088  0.9987670699034008  0.6709669941039733
  0.3386406629173722  0.3304556349078995  0.9954455102854005
  0.3342217297637167  0.3300157318872897  0.3347297071958665
  0.3330106661823043  0.3325871129504204  0.6677401645713776
  0.3252535254513474  0.6682922530536298  0.9992734684448222
  0.3308212949460740  0.6689144346017711  0.3332449188894644
  0.3292789216344620  0.6681061050995843  0.6693639634913002
  0.6714524281094538  0.9960923439676319  0.0015275958765291
  0.6712697406927599  0.0046511900141838  0.3317160902802661
  0.6698467363205491  0.0000679322185398  0.6652499638693600
  0.6706691140484925  0.3387268160431914  0.9984393637164588
  0.6646160444334722  0.3309513986883154  0.3363315289449551
  0.6676772453659093  0.3293758177288813  0.6675005284427867
  0.6731212956178599  0.6726098370655297  0.9992745670188620
  0.6678784103410224  0.6696442068743336  0.3369333146439173
  0.6653185058844990  0.6606305376600090  0.6640018273167529
  0.1691748306003952  0.1769127849366226  0.9997267288381195
  0.1719265806101394  0.0024373975622843  0.1725440552299699
  0.0002376168412693  0.1697809724747155  0.1680495779550223
  0.1710468977266903  0.1740975627871853  0.3375216822709733
  0.1681692953028194  0.0012618203754779  0.5001164327055766
  0.9991996115789001  0.1681791707524268  0.5007910383898728
  0.1738124995661416  0.1739175310143761  0.6696907117641284
  0.1724063637393747  0.9968714813094882  0.8282322625727369
  0.0005719962332718  0.1681003281027618  0.8258956245106054
  0.1730734288400873  0.5002208984188086  0.9998983595618268
  0.1718293638836871  0.3295635484948735  0.1636616739224604
  0.9991915809466294  0.5005581741782656  0.1652737625732582
  0.1736895956940063  0.5010151075731651  0.3308278536782787
  0.1698135257171197  0.3287195054424980  0.4993645428498215
  0.0000951656282647  0.4998216804560918  0.4999629163323133
  0.1612046717217483  0.4978323937199030  0.6621582762654414
  0.1679376391528200  0.3340582965373968  0.8291125228647120
  0.0009447724948653  0.5017278911121483  0.8269939351659108
  0.1692048781836526  0.8329297840227866  0.9996902854005365
  0.1707088501810708  0.6688319426441455  0.1686290366270417
  0.9995037095261861  0.8324195676898509  0.1727684689182983
  0.1686443407650102  0.8325803913436803  0.3331892780140408
  0.1715563395638709  0.6714006340329176  0.4990289666238115
  0.9999694228744763  0.8300962169377049  0.5000793012359844
  0.1740580967808646  0.8332774951094786  0.6717268433315522
  0.1693322395960094  0.6709905299975689  0.8447085378284166
  0.9988788811806332  0.8286787206339887  0.8412966266624734
  0.5002294257030436  0.1748620420007156  0.9988094178400536
  0.4999171445353201  0.9971402416795992  0.1733268418754426
  0.3301192472600177  0.1737612413107964  0.1740294335434453
  0.5002996362414897  0.1704977263668400  0.3377041449450729
  0.4996930035396216  0.0003082549439696  0.4999161448782953
  0.3284128004056217  0.1794656013609221  0.4982644116268198
  0.4941627194064159  0.1685252991969423  0.6684367303239752
  0.5001882108115558  0.9972661162318825  0.8265177723302294
  0.3282521117633398  0.1701795701971356  0.8309154771146152
  0.4999149336209333  0.5000907232183530  0.9993579373948678
  0.4981787758934048  0.3332952901966956  0.1766420269130384
  0.3290887474091506  0.5009861494529635  0.1703624418602192
  0.4992516558524213  0.5017346448128625  0.3293964320819008
  0.4999418053076865  0.3302638034523676  0.4999620282587205
  0.3293646066722218  0.5020368770081612  0.4997075922903300
  0.5014910949969432  0.5015617773401584  0.6554040771658504
  0.5014798127320432  0.3441569758102203  0.8284583142919814
  0.3281523246861182  0.4992812169799606  0.8212224236194767
  0.4995938556575996  0.8277807321834491  0.9999862089251221
  0.5014960179279140  0.6709248516821158  0.1575807642469475
  0.3282641722747325  0.8270606334027228  0.1739928591132597
  0.4986048485110900  0.8248658551885006  0.3311589702399524
  0.4995911543140181  0.6671389157172989  0.5001341735123082
  0.3267892620277367  0.8313723907318621  0.4998851987988186
  0.4998202586785116  0.8284357798875486  0.6653105764241721
  0.4990806662513319  0.6750855959119431  0.8254065394840068
  0.3264043607937924  0.8273080563405837  0.8283755930472436
  0.8260698731393314  0.1612404021069523  0.9982821862638737
  0.8312338137134365  0.0003972653273989  0.1700966732950763
  0.6624537618462454  0.1712850941344649  0.1727246433516439
  0.8288336609051722  0.1750600334926847  0.3313895498058905
  0.8279950937532883  0.0011972800510564  0.5012884938533393
  0.6717499890212656  0.1663890250698978  0.5010884113462484
  0.8316848246817869  0.1741774076950124  0.6667658908057723
  0.8248616793632204  0.0038929761969679  0.8233134400968745
  0.6709260949291160  0.1728176748199731  0.8326304706199563
  0.8252122325090844  0.4996393718245841  0.0014575044171141
  0.8285743136654732  0.3277554185467378  0.1752637077644642
  0.6609074727508538  0.5001125040276012  0.1715608125320887
  0.8262729378545326  0.4935206305578850  0.3380317643545933
  0.8298737127974758  0.3297387095069382  0.5036931149155560
  0.6709948596159380  0.4999813034562140  0.5002013820060499
  0.8268947884854382  0.4989868208115851  0.6704188001913118
  0.8279069498800939  0.3302687135058705  0.8476484322845508
  0.6558763663700651  0.4988888896990729  0.8276219976816295
  0.8272088307825107  0.8242845385233760  0.9983569236028288
  0.8313149281853308  0.6692805205941694  0.1734534862591520
  0.6701472305730122  0.8315806796433177  0.1753441022550883
  0.8290456853193098  0.8371339048832076  0.3324807390072883
  0.8312361260987988  0.6711902026325391  0.5028941719636777
  0.6715399471094181  0.8272058642492925  0.4990167395204883
  0.8285083508335224  0.8275849811867880  0.6712454762532596
  0.8294847637582050  0.6726415984665969  0.8316725823233418
  0.6678341729772461  0.8326268940273439  0.8308095393006241
  0.1693661664213920  0.1688555942401405  0.1695826173697408
  0.1704996979183331  0.1710515889759164  0.5017255389941778
  0.1694025988610167  0.1679398734773303  0.8324001369438012
  0.1730842622370857  0.4947483969236153  0.1649269310628918
  0.1709207687325743  0.5022295780915387  0.4976536546808242
  0.1671153279307296  0.4977019577100488  0.8285809264752204
  0.1697210636397824  0.8317736488857628  0.1705876341431828
  0.1654424659414328  0.8337880989168657  0.5004491240691915
  0.1689921954924810  0.8313449430901638  0.8298229389163966
  0.4999144052468371  0.1691223203235279  0.1637743330360843
  0.4978695275958767  0.1701280948144699  0.4989654930441560
  0.5028136940629274  0.1716507501613963  0.8271658504915269
  0.5013911986850839  0.5008892963570538  0.1709633845037179
  0.4991092860126702  0.5017789831990714  0.5017960482692658
  0.4984910766309142  0.5027868302915376  0.8310511468071228
  0.5013318583219376  0.8307345060107445  0.1645121876343104
  0.4988171121084007  0.8291623830716734  0.5004239721810899
  0.4969698231906971  0.8302839392248503  0.8326557180999967
  0.8292820272223628  0.1610642640305050  0.1694909442649202
  0.8292216165565661  0.1707166745668185  0.4989083163500918
  0.8333649395493092  0.1687375537130179  0.8330331123202865
  0.8338041681384462  0.4967223744267934  0.1704329307136097
  0.8280333932345688  0.4993855847491275  0.5005834488700025
  0.8287068462513504  0.4988691087114119  0.8295686166445145
  0.8296369441260452  0.8295969980007472  0.1705921645616547
  0.8315802900589875  0.8342891557891522  0.5004252987271145
  0.8256233094233616  0.8306649111625263  0.8297874584656230
  0.1722162312120299  0.9975815763146940  0.9996959989234105
 
 -0.29981219E-02 -0.89865313E-04 -0.65743589E-03
 -0.15261359E-03 -0.20914634E-04 -0.73438988E-03
 -0.16175330E-03  0.63199613E-03  0.12531977E-02
 -0.74338825E-04 -0.10495057E-02  0.18785505E-03
  0.66409485E-03 -0.19814226E-03  0.39615285E-04
 -0.56651127E-03 -0.57446622E-03 -0.10165237E-02
  0.77459760E-04  0.18878209E-02  0.16869923E-03
  0.84606786E-04  0.48789961E-03 -0.16592313E-02
 -0.58201578E-03 -0.13923891E-02  0.46546931E-03
  0.34493390E-02  0.64268131E-04 -0.41194360E-03
 -0.53625974E-03  0.18050405E-03 -0.17134331E-02
 -0.12690215E-02  0.15566763E-03  0.11074525E-02
  0.51550672E-03  0.10936913E-03 -0.93719872E-03
 -0.26538481E-03  0.11637552E-04 -0.15017838E-03
 -0.58600006E-03  0.11153307E-03  0.13687240E-03
 -0.15436797E-02  0.92908922E-03  0.32367572E-03
 -0.91196419E-03  0.12393362E-02 -0.73448954E-03
 -0.10880403E-02  0.12873939E-02  0.78471949E-03
  0.13530483E-02  0.39516500E-03 -0.69619879E-03
  0.40170329E-03  0.36788410E-03 -0.10084194E-02
  0.72415910E-03  0.16348238E-03  0.15807197E-05
  0.96666305E-03  0.14197646E-02 -0.21208832E-03
 -0.30023245E-03 -0.32085087E-03 -0.10764332E-03
  0.52445017E-03  0.20431943E-04  0.45894798E-03
  0.54933325E-03  0.15508172E-02  0.15412900E-03
  0.43142168E-03  0.72977185E-03  0.19140470E-03
 -0.20494698E-03 -0.32995437E-03 -0.35242943E-03
 -0.53081705E-02 -0.32028404E-02  0.14103196E-02
 -0.95547565E-02 -0.13405169E-01  0.26444999E-02
 -0.12068686E-02 -0.14185496E-02 -0.12867210E-02
 -0.53585233E-02  0.63944462E-02  0.25687510E-02
  0.12028143E-02 -0.26350030E-02  0.90461118E-03
  0.24743603E-02  0.86192374E-02  0.20986412E-02
  0.74529379E-02 -0.45513059E-02  0.12173826E-01
  0.60057921E-02 -0.26087027E-02  0.11297480E-01
  0.21848946E-02  0.56908675E-02  0.58651836E-02
 -0.29342483E-02 -0.11048323E-01 -0.77927800E-03
 -0.66730219E-02 -0.88089813E-02  0.12710679E-02
  0.58165784E-03  0.60232382E-03 -0.23980340E-02
  0.74486344E-02 -0.10680737E-01 -0.34926722E-02
  0.13212447E-01 -0.72951401E-02  0.52674422E-02
  0.58250942E-03  0.46989512E-02 -0.36962115E-02
 -0.17493217E-02 -0.29007989E-02 -0.55226606E-02
  0.34955271E-03  0.14773044E-02 -0.51334832E-02
 -0.12016640E-01  0.40575009E-02  0.55141367E-02
  0.48471117E-02 -0.83970684E-02 -0.49612360E-02
  0.48413923E-02 -0.28808294E-02 -0.31532001E-02
  0.12247408E-01  0.67530873E-02  0.22259773E-02
 -0.88075945E-02 -0.24475392E-02  0.13943748E-02
  0.13308675E-01  0.69114971E-02  0.13896804E-02
 -0.86440221E-04 -0.10777057E-01 -0.18951157E-03
 -0.57886022E-02 -0.12590647E-02 -0.46129298E-02
  0.83954063E-02 -0.67492446E-02  0.12684042E-01
 -0.31132874E-02 -0.89203908E-02  0.14502611E-01
  0.15667966E-02  0.19581612E-02  0.44630691E-03
 -0.22198934E-02 -0.61247708E-02  0.45069707E-02
 -0.81773842E-02  0.80396120E-03 -0.94724512E-02
 -0.68838287E-02 -0.15479998E-02 -0.10350507E-01
  0.27936193E-02  0.19100019E-02  0.18505123E-02
 -0.47730100E-03 -0.41826391E-03  0.38137724E-02
 -0.10984693E-03  0.26145967E-02  0.56285302E-02
  0.21847414E-02  0.60909854E-02  0.26018009E-02
  0.94634553E-02 -0.28464985E-02  0.99843674E-02
 -0.33002118E-02  0.31688976E-02 -0.48192870E-02
  0.25494287E-02 -0.33968083E-03  0.11409456E-02
 -0.73776547E-02 -0.45799780E-03  0.14309221E-01
  0.11940926E-01 -0.10481989E-02  0.72344786E-02
 -0.18594256E-02 -0.12346140E-01 -0.26902038E-02
  0.79274556E-02  0.52825812E-04 -0.33842932E-02
 -0.66289797E-03 -0.10049511E-01  0.14697690E-01
  0.24308264E-02 -0.13793599E-01 -0.55741037E-02
 -0.10424712E-02  0.30689596E-02 -0.10184796E-01
  0.15655431E-02  0.13365447E-01 -0.92532703E-03
  0.10948658E-01  0.51670341E-02 -0.10550121E-01
  0.62921927E-02  0.90391697E-02 -0.42698330E-02
  0.29262130E-02 -0.85914508E-02 -0.16151559E-02
  0.13400700E-02  0.12466732E-02  0.25898790E-02
  0.38948274E-02 -0.52407624E-02  0.75528200E-02
 -0.52471223E-02 -0.91625324E-02  0.45664446E-03
 -0.81812466E-03  0.46207325E-02 -0.39010652E-03
 -0.63297912E-02  0.67379366E-02  0.73313348E-02
  0.36361931E-02 -0.57540444E-02  0.41825772E-02
 -0.60782131E-02 -0.18938003E-02  0.63577964E-02
 -0.44042652E-02  0.12218344E-01  0.21818619E-02
  0.71677114E-02  0.34714480E-02 -0.15792699E-02
 -0.11493396E-01  0.67767963E-04 -0.10391288E-01
  0.21466535E-02  0.79408621E-03  0.68271093E-02
  0.50621398E-02  0.59739205E-02 -0.79375322E-03
 -0.29958809E-02 -0.78237295E-02 -0.51978571E-03
 -0.33489535E-02 -0.12395844E-01 -0.14460456E-02
  0.52291821E-02 -0.11830533E-01  0.53249734E-02
  0.11017229E-01 -0.48336818E-02  0.25439542E-02
 -0.41824173E-02 -0.13614996E-02 -0.13427085E-01
 -0.35119207E-02 -0.22150202E-02  0.36117996E-02
  0.56863437E-02 -0.70640602E-02 -0.36830445E-03
 -0.13403222E-01  0.14349017E-02  0.14500628E-02
 -0.11265372E-01  0.13081482E-01  0.95488857E-02
 -0.51654096E-02  0.48363407E-03  0.75362424E-02
 -0.64298393E-02 -0.53411990E-02  0.13205143E-01
 -0.37575207E-02 -0.22138808E-02 -0.68608072E-02
 -0.11652815E-02  0.79248827E-02  0.43174259E-02
  0.49446825E-02 -0.49033384E-02 -0.72085664E-02
  0.26290437E-02 -0.62172576E-02 -0.15737097E-02
  0.60894607E-02 -0.69537917E-02  0.44130342E-02
 -0.53693477E-02  0.70197206E-03 -0.12423855E-01
  0.17059849E-01  0.60026437E-02  0.72963127E-03
  0.76839690E-02  0.44623550E-02  0.72410218E-03
  0.32185713E-02  0.43756764E-02  0.47295904E-02
  0.59253855E-03  0.18807419E-02  0.33283253E-04
  0.15076174E-02  0.73283990E-03 -0.20617891E-03
 -0.89609894E-03  0.11056928E-02 -0.71283223E-03
  0.45018040E-03  0.12528293E-02 -0.97107252E-03
 -0.12510581E-02  0.51081439E-03  0.13853228E-03
  0.17205264E-02 -0.17997716E-04 -0.43281440E-04
 -0.14116844E-03 -0.19439835E-02  0.46757320E-04
 -0.31822041E-04  0.45208335E-03 -0.42767386E-03
  0.22201693E-03 -0.90722496E-03  0.25471607E-03
  0.12379771E-02  0.10435461E-02  0.11467124E-02
 -0.51125133E-03 -0.14347982E-02 -0.71646098E-03
  0.12030931E-02  0.21525350E-03 -0.48732088E-03
 -0.45646436E-03  0.18947883E-02 -0.11385872E-02
 -0.24837376E-03  0.16775559E-03 -0.25366283E-02
 -0.91883972E-04 -0.14780599E-03 -0.13783756E-02
 -0.17887423E-03 -0.12401826E-02  0.76570841E-03
  0.53781710E-03  0.12569777E-04  0.43109917E-03
  0.95412565E-03  0.10721095E-02 -0.18005244E-02
 -0.21600592E-02 -0.33021409E-03 -0.47599611E-04
 -0.14220879E-02  0.10174800E-02  0.13548417E-03
 -0.13186865E-03 -0.10607525E-02  0.16533225E-03
 -0.79016458E-03  0.21190197E-03  0.12357616E-02
 -0.18858121E-03  0.81400099E-03  0.26255186E-03
 -0.34287882E-02 -0.12773364E-03 -0.77909028E-03
 -0.59239591E-03 -0.10380182E-02 -0.15092878E-03
 -0.63558571E-03  0.57662221E-03 -0.11015008E-02
 -0.76454401E-03  0.46511867E-03  0.13308808E-03
 -0.10551729E-01  0.83664490E-02 -0.14225403E-01
 
           1
  0.500000000000000     
  0.10000000E+01  0.00000000E+00  0.00000000E+00  0.00000000E+00
  0.99525362E+00  0.99989145E+00  0.14007246E-02
  0.19127457E-02  0.27359962E-02  0.33328326E+00
  0.99671324E+00  0.45185151E-02  0.67167330E+00
  0.99965706E+00  0.32990443E+00  0.99893755E+00
  0.49089553E-02  0.33222911E+00  0.33438721E+00
  0.99845247E+00  0.33227393E+00  0.66268248E+00
  0.31146993E-02  0.67165993E+00  0.99877936E+00
  0.90922684E-03  0.66514136E+00  0.32881809E+00
  0.99565057E+00  0.65673218E+00  0.67167510E+00
  0.34164438E+00  0.16963442E-02  0.11725736E-02
  0.33315229E+00  0.99380220E-04  0.32853675E+00
  0.33005655E+00  0.99877326E+00  0.67101102E+00
  0.33866116E+00  0.33045998E+00  0.99540825E+00
  0.33421118E+00  0.33001619E+00  0.33472374E+00
  0.33298737E+00  0.33259155E+00  0.66774561E+00
  0.32519215E+00  0.66832919E+00  0.99928634E+00
  0.33078504E+00  0.66896371E+00  0.33321572E+00
  0.32923566E+00  0.66815729E+00  0.66939516E+00
  0.67150622E+00  0.99610806E+00  0.14999162E-02
  0.67128571E+00  0.46658164E-02  0.33167600E+00
  0.66987553E+00  0.74431995E-04  0.66525003E+00
  0.67070755E+00  0.33878326E+00  0.99843093E+00
  0.66460411E+00  0.33093864E+00  0.33632725E+00
  0.66769810E+00  0.32937663E+00  0.66751878E+00
  0.67314314E+00  0.67267149E+00  0.99928069E+00
  0.66789556E+00  0.66967322E+00  0.33694092E+00
  0.66531036E+00  0.66061742E+00  0.66398782E+00
  0.16896379E+00  0.17678545E+00  0.99978280E+00
  0.17154670E+00  0.19044312E-02  0.17264920E+00
  0.18963383E-03  0.16972457E+00  0.16799842E+00
  0.17083385E+00  0.17435179E+00  0.33762381E+00
  0.16821712E+00  0.11570572E-02  0.50015240E+00
  0.99929799E+00  0.16852186E+00  0.50087448E+00
  0.17410882E+00  0.17373658E+00  0.67017472E+00
  0.17264514E+00  0.99676776E+00  0.82868143E+00
  0.65886386E-03  0.16832659E+00  0.82612881E+00
  0.17295677E+00  0.49978164E+00  0.99986738E+00
  0.17156406E+00  0.32921332E+00  0.16371221E+00
  0.99921471E+00  0.50058212E+00  0.16517842E+00
  0.17398574E+00  0.50059046E+00  0.33068899E+00
  0.17033883E+00  0.32842946E+00  0.49957397E+00
  0.11832519E-03  0.50000850E+00  0.49981596E+00
  0.16113512E+00  0.49771706E+00  0.66193870E+00
  0.16795154E+00  0.33411703E+00  0.82890842E+00
  0.46701167E-03  0.50188921E+00  0.82721317E+00
  0.16939759E+00  0.83259593E+00  0.99949304E+00
  0.17090134E+00  0.66871741E+00  0.16850367E+00
  0.99999065E+00  0.83268806E+00  0.17285697E+00
  0.16829417E+00  0.83248308E+00  0.33324472E+00
  0.17208547E+00  0.67167542E+00  0.49908422E+00
  0.99996599E+00  0.82966774E+00  0.50007177E+00
  0.17382795E+00  0.83322744E+00  0.67154344E+00
  0.16966603E+00  0.67072219E+00  0.84521283E+00
  0.99875510E+00  0.82832406E+00  0.84187323E+00
  0.50029172E+00  0.17493990E+00  0.99882716E+00
  0.49982889E+00  0.99689673E+00  0.17350603E+00
  0.32979413E+00  0.17379321E+00  0.17365283E+00
  0.50002595E+00  0.17043618E+00  0.33729263E+00
  0.49980407E+00  0.38419331E-03  0.49998972E+00
  0.32839382E+00  0.17944897E+00  0.49841604E+00
  0.49415835E+00  0.16862925E+00  0.66866051E+00
  0.50027507E+00  0.99750828E+00  0.82662122E+00
  0.32862836E+00  0.17006640E+00  0.83131244E+00
  0.49978372E+00  0.50021671E+00  0.99916633E+00
  0.49828014E+00  0.33328179E+00  0.17668739E+00
  0.32879542E+00  0.50096794E+00  0.17093135E+00
  0.49972641E+00  0.50169297E+00  0.32968406E+00
  0.49986788E+00  0.32977294E+00  0.49985507E+00
  0.32967979E+00  0.50203898E+00  0.49957304E+00
  0.50146474E+00  0.50116223E+00  0.65598843E+00
  0.50157646E+00  0.34360857E+00  0.82823670E+00
  0.32811088E+00  0.49940323E+00  0.82081749E+00
  0.49965610E+00  0.82831212E+00  0.99994942E+00
  0.50193132E+00  0.67113028E+00  0.15716131E+00
  0.32851434E+00  0.82742002E+00  0.17382310E+00
  0.49872119E+00  0.82452427E+00  0.33109475E+00
  0.49964443E+00  0.66718848E+00  0.50023714E+00
  0.32694411E+00  0.83116403E+00  0.50018549E+00
  0.49961164E+00  0.82807149E+00  0.66532873E+00
  0.49904814E+00  0.67526931E+00  0.82539103E+00
  0.32615270E+00  0.82757595E+00  0.82866707E+00
  0.82621444E+00  0.16101163E+00  0.99844848E+00
  0.83099215E+00  0.32197111E-03  0.17034945E+00
  0.66227866E+00  0.17177087E+00  0.17281139E+00
  0.82911864E+00  0.17519805E+00  0.33132676E+00
  0.82753814E+00  0.11999744E-02  0.50087535E+00
  0.67183534E+00  0.16642060E+00  0.50135985E+00
  0.83188609E+00  0.17441492E+00  0.66673433E+00
  0.82474257E+00  0.35819182E-02  0.82329277E+00
  0.67079295E+00  0.17232484E+00  0.83257298E+00
  0.82542014E+00  0.49916901E+00  0.16692161E-02
  0.82901234E+00  0.32756324E+00  0.17536485E+00
  0.66074119E+00  0.50005837E+00  0.17102697E+00
  0.82613331E+00  0.49343257E+00  0.33817536E+00
  0.83009979E+00  0.32945785E+00  0.50367847E+00
  0.67046197E+00  0.50003835E+00  0.50025903E+00
  0.82644690E+00  0.49950692E+00  0.67079845E+00
  0.82770158E+00  0.33028794E+00  0.84794806E+00
  0.65562073E+00  0.49867653E+00  0.82814701E+00
  0.82705944E+00  0.82419652E+00  0.99808415E+00
  0.83126860E+00  0.66959560E+00  0.17362514E+00
  0.67034382E+00  0.83138573E+00  0.17505750E+00
  0.82915021E+00  0.83688672E+00  0.33241817E+00
  0.83147823E+00  0.67091373E+00  0.50306963E+00
  0.67132647E+00  0.82723377E+00  0.49852279E+00
  0.82918662E+00  0.82782364E+00  0.67127449E+00
  0.82979027E+00  0.67281901E+00  0.83170137E+00
  0.66796214E+00  0.83280086E+00  0.83099758E+00
  0.16938972E+00  0.16893037E+00  0.16958394E+00
  0.17055964E+00  0.17108073E+00  0.50171734E+00
  0.16936697E+00  0.16798383E+00  0.83237180E+00
  0.17310216E+00  0.49479821E+00  0.16488832E+00
  0.17087103E+00  0.50224989E+00  0.49765916E+00
  0.16718373E+00  0.49770124E+00  0.82857921E+00
  0.16971545E+00  0.83169636E+00  0.17058949E+00
  0.16544120E+00  0.83380607E+00  0.50043212E+00
  0.16900102E+00  0.83130887E+00  0.82983307E+00
  0.49996363E+00  0.16916381E+00  0.16381992E+00
  0.49784920E+00  0.17007105E+00  0.49893701E+00
  0.50286153E+00  0.17165931E+00  0.82714648E+00
  0.50137305E+00  0.50096463E+00  0.17091812E+00
  0.49909941E+00  0.50178565E+00  0.50169520E+00
  0.49848742E+00  0.50278095E+00  0.83099634E+00
  0.50132475E+00  0.83068520E+00  0.16454263E+00
  0.49883849E+00  0.82916288E+00  0.50044111E+00
  0.49700776E+00  0.83032656E+00  0.83258413E+00
  0.82919615E+00  0.16105114E+00  0.16948905E+00
  0.82916508E+00  0.17075713E+00  0.49891370E+00
  0.83335970E+00  0.16869538E+00  0.83303969E+00
  0.83377275E+00  0.49673080E+00  0.17048206E+00
  0.82802590E+00  0.49941795E+00  0.50059389E+00
  0.82857052E+00  0.49886403E+00  0.82953764E+00
  0.82961339E+00  0.82955573E+00  0.17058616E+00
  0.83155502E+00  0.83431208E+00  0.50038150E+00
  0.82559291E+00  0.83068340E+00  0.82979275E+00
  0.17179671E+00  0.99791421E+00  0.99913042E+00
 -0.11878013E-03 -0.36150685E-05 -0.25804614E-04
 -0.56793762E-05 -0.73643901E-06 -0.29199042E-04
 -0.65624123E-05  0.25262666E-04  0.50017046E-04
 -0.27261001E-05 -0.41841520E-04  0.71479523E-05
  0.27102531E-04 -0.81469718E-05  0.14410719E-05
 -0.22296055E-04 -0.22796529E-04 -0.40374122E-04
  0.35978279E-05  0.74725299E-04  0.65474016E-05
  0.37678471E-05  0.18830764E-04 -0.66096667E-04
 -0.22954499E-04 -0.56111952E-04  0.18782924E-04
  0.13687946E-03  0.24999256E-05 -0.16184458E-04
 -0.20750740E-04  0.70053961E-05 -0.68345698E-04
 -0.49919045E-04  0.58137907E-05  0.44180592E-04
  0.21054772E-04  0.36607897E-05 -0.37698620E-04
 -0.10103108E-04 -0.12119295E-06 -0.59342423E-05
 -0.22745658E-04  0.41005760E-05  0.55820655E-05
 -0.61476663E-04  0.36451289E-04  0.12620744E-04
 -0.35782543E-04  0.48799828E-04 -0.29025483E-04
 -0.42834099E-04  0.50559872E-04  0.31181511E-04
  0.54236740E-04  0.15161391E-04 -0.27230231E-04
  0.16727209E-04  0.14871164E-04 -0.39967057E-04
  0.29152570E-04  0.63347394E-05 -0.10073623E-06
  0.38908580E-04  0.56052189E-04 -0.89081277E-05
 -0.11607384E-04 -0.13226349E-04 -0.40406694E-05
  0.20922812E-04  0.37798902E-06  0.18074474E-04
  0.22790865E-04  0.61871924E-04  0.58200474E-05
  0.17423301E-04  0.28892569E-04  0.77844941E-05
 -0.79622206E-05 -0.13924492E-04 -0.14048812E-04
 -0.20944457E-03 -0.11687221E-03  0.52413209E-04
 -0.37712247E-03 -0.49068627E-03  0.11264379E-03
 -0.40165742E-04 -0.75241702E-04 -0.81491771E-04
 -0.21491077E-03  0.26183543E-03  0.98173624E-04
  0.32365343E-04 -0.10846680E-03  0.37255788E-04
  0.93342597E-04  0.33091440E-03  0.88261376E-04
  0.32066296E-03 -0.15795543E-03  0.46255711E-03
  0.25632306E-03 -0.14398221E-03  0.45245635E-03
  0.97795529E-04  0.19809547E-03  0.21329116E-03
 -0.82339013E-04 -0.43086781E-03 -0.30663385E-04
 -0.26227956E-03 -0.33724367E-03  0.45772298E-04
  0.10470571E-04  0.29376989E-04 -0.10565816E-03
  0.31178133E-03 -0.40152492E-03 -0.10434797E-03
  0.48919266E-03 -0.29415317E-03  0.20031969E-03
  0.29698230E-04  0.17959237E-03 -0.14810797E-03
 -0.55747786E-04 -0.12407035E-03 -0.21343744E-03
 -0.12134887E-04  0.52761256E-04 -0.21428117E-03
 -0.45493589E-03  0.18664437E-03  0.20724691E-03
  0.19112143E-03 -0.32387058E-03 -0.20550646E-03
  0.16544821E-03 -0.13520130E-03 -0.14649175E-03
  0.48243631E-03  0.27627057E-03  0.95354574E-04
 -0.36687275E-03 -0.94144621E-04  0.73245268E-04
  0.52065477E-03  0.26487462E-03  0.25352108E-04
 -0.17810523E-05 -0.39179135E-03 -0.64945738E-05
 -0.21605478E-03 -0.36920279E-04 -0.17201999E-03
  0.29124417E-03 -0.26385469E-03  0.51216315E-03
 -0.12457492E-03 -0.34764679E-03  0.53672139E-03
  0.69328767E-04  0.11299838E-03  0.21828088E-04
 -0.89607070E-04 -0.28415413E-03  0.18155502E-03
 -0.30895351E-03  0.58992241E-04 -0.34989710E-03
 -0.27570313E-03 -0.10017123E-03 -0.40983058E-03
  0.10110076E-03  0.87846917E-04  0.70004900E-04
 -0.35674149E-04 -0.18635114E-04  0.12853836E-03
  0.46263244E-05  0.87271185E-04  0.20786204E-03
  0.92208882E-04  0.19838634E-03  0.96276582E-04
  0.36581900E-03 -0.12101640E-03  0.42743946E-03
 -0.13251625E-03  0.12977060E-03 -0.21554931E-03
  0.10897270E-03 -0.11519971E-04  0.59809273E-04
 -0.28903433E-03 -0.65697793E-05  0.54874499E-03
  0.46148986E-03 -0.17391607E-04  0.28831779E-03
 -0.75878719E-04 -0.45891727E-03 -0.10829012E-03
  0.30825982E-03  0.42425765E-04 -0.14370322E-03
 -0.97468246E-05 -0.38170500E-03  0.55077115E-03
  0.12933649E-03 -0.52515535E-03 -0.21266351E-03
 -0.48869584E-04  0.12700174E-03 -0.43368683E-03
  0.47089239E-04  0.51455611E-03 -0.35234764E-04
  0.45440744E-03  0.19310564E-03 -0.40585760E-03
  0.24368042E-03  0.35423584E-03 -0.12624215E-03
  0.78833546E-04 -0.36219391E-03 -0.43899205E-04
  0.50179079E-04  0.47648490E-04  0.10472946E-03
  0.14812566E-03 -0.18149212E-03  0.29693760E-03
 -0.20612161E-03 -0.36792139E-03 -0.75599021E-05
 -0.55374639E-04  0.22553593E-03 -0.37365105E-04
 -0.30042400E-03  0.26107364E-03  0.29630140E-03
  0.12355915E-03 -0.22762918E-03  0.14741699E-03
 -0.21169714E-03 -0.61329801E-04  0.24618832E-03
 -0.17286781E-03  0.48072084E-03  0.11069360E-03
  0.30085193E-03  0.17029694E-03 -0.34502267E-04
 -0.46185509E-03  0.12749124E-04 -0.40182476E-03
  0.98777330E-04  0.21891979E-04  0.30294374E-03
  0.20286035E-03  0.25467516E-03 -0.33083945E-04
 -0.13976117E-03 -0.31218862E-03 -0.40932606E-04
 -0.12884997E-03 -0.48467154E-03 -0.41941785E-04
  0.17577585E-03 -0.48087315E-03  0.21220713E-03
  0.45185530E-03 -0.21387239E-03  0.12692749E-03
 -0.16429054E-03 -0.53597145E-04 -0.53523600E-03
 -0.13444396E-03 -0.11195957E-03  0.13014378E-03
  0.24711897E-03 -0.26710460E-03  0.65084080E-05
 -0.55626709E-03  0.55914979E-04  0.66525696E-04
 -0.46388544E-03  0.50366396E-03  0.36291600E-03
 -0.20997227E-03  0.30548211E-04  0.33498621E-03
 -0.28179143E-03 -0.24225169E-03  0.51092986E-03
 -0.16380580E-03 -0.10743779E-03 -0.29193104E-03
 -0.24245129E-04  0.29691639E-03  0.20752245E-03
  0.17035742E-03 -0.18556902E-03 -0.27278216E-03
  0.95882474E-04 -0.25046339E-03 -0.46151935E-04
  0.27018512E-03 -0.28517876E-03  0.20056097E-03
 -0.21083825E-03  0.68638744E-05 -0.51472438E-03
  0.69177731E-03  0.21555518E-03  0.11992341E-04
  0.30719664E-03  0.20715483E-03  0.45131925E-04
  0.13338517E-03  0.18018418E-03  0.19403502E-03
  0.23971352E-04  0.74113295E-04  0.11322242E-05
  0.61617455E-04  0.30316435E-04 -0.82746196E-05
 -0.34557243E-04  0.43691334E-04 -0.27904756E-04
  0.19221653E-04  0.48682458E-04 -0.38681533E-04
 -0.48157794E-04  0.20533686E-04  0.51218676E-05
  0.67924065E-04 -0.19412169E-05 -0.23674725E-05
 -0.49049664E-05 -0.76637204E-04  0.23399759E-05
 -0.69501079E-06  0.17111680E-04 -0.17117434E-04
  0.10202895E-04 -0.35639461E-04  0.94315949E-05
  0.49575283E-04  0.40649687E-04  0.44721266E-04
 -0.20078309E-04 -0.56168501E-04 -0.28069608E-04
  0.48603835E-04  0.91919367E-05 -0.20270764E-04
 -0.17440237E-04  0.74658944E-04 -0.44111759E-04
 -0.90863546E-05  0.67945462E-05 -0.99180380E-04
 -0.28107830E-05 -0.59390008E-05 -0.54859079E-04
 -0.62504641E-05 -0.49047695E-04  0.29598533E-04
  0.22128353E-04 -0.12999429E-05  0.17262619E-04
  0.37619266E-04  0.41465718E-04 -0.70401703E-04
 -0.85996230E-04 -0.13627372E-04 -0.19604797E-05
 -0.57912285E-04  0.41250408E-04  0.53288578E-05
 -0.51644430E-05 -0.41592055E-04  0.70271066E-05
 -0.30761183E-04  0.79977673E-05  0.49257640E-04
 -0.88695432E-05  0.31909424E-04  0.11026912E-04
 -0.13671148E-03 -0.55547504E-05 -0.32550519E-04
 -0.24640653E-04 -0.41825663E-04 -0.54983154E-05
 -0.25233053E-04  0.22487921E-04 -0.43917959E-04
 -0.32963115E-04  0.17730843E-04  0.51953188E-05
 -0.38034998E-03  0.31035459E-03 -0.56139554E-03
  0.00000000E+00  0.00000000E+00  0.00000000E+00
  0.00000000E+00  0.00000000E+00  0.00000000E+00
  0.00000000E+00  0.00000000E+00  0.00000000E+00
  0.00000000E+00  0.00000000E+00  0.00000000E+00
  0.00000000E+00  0.00000000E+00  0.00000000E+00
  0.00000000E+00  0.00000000E+00  0.00000000E+00
  0.00000000E+00  0.00000000E+00  0.00000000E+00
  0.00000000E+00  0.00000000E+00  0.00000000E+00
  0.00000000E+00  0.00000000E+00  0.00000000E+00
  0.00000000E+00  0.00000000E+00  0.00000000E+00
  0.00000000E+00  0.00000000E+00  0.00000000E+00
  0.00000000E+00  0.00000000E+00  0.00000000E+00
  0.00000000E+00  0.00000000E+00  0.00000000E+00
  0.00000000E+00  0.00000000E+00  0.00000000E+00
  0.00000000E+00  0.00000000E+00  0.00000000E+00
  0.00000000E+00  0.00000000E+00  0.00000000E+00
  0.00000000E+00  0.00000000E+00  0.00000000E+00
  0.00000000E+00  0.00000000E+00  0.00000000E+00
  0.00000000E+00  0.00000000E+00  0.00000000E+00
  0.00000000E+00  0.00000000E+00  0.00000000E+00
  0.00000000E+00  0.00000000E+00  0.00000000E+00
  0.00000000E+00  0.00000000E+00  0.00000000E+00
  0.00000000E+00  0.00000000E+00  0.00000000E+00
  0.00000000E+00  0.00000000E+00  0.00000000E+00
  0.00000000E+00  0.00000000E+00  0.00000000E+00
  0.00000000E+00  0.00000000E+00  0.00000000E+00