Ba  H  O  Y Zr 
 1.0000000000000000
    12.5760000000000005    0.0000000000000000    0.0000000000000000
     0.0000000000000000   12.5760000000000005    0.0000000000000000
     0.0000000000000000    0.0000000000000000   12.5760000000000005
 Ba  H   O   Y   Zr 
  27   1  81  10  17
Cartesian
  0.0000000000000000  0.0000000000000000  0.0000000000000000
  0.0000000000000000  0.0000000000000000  4.1920000000000002
  0.0000000000000000  0.0000000000000000  8.3840000000000003
  0.0000000000000000  4.1920000000000002  0.0000000000000000
  0.0000000000000000  4.1920000000000002  4.1920000000000002
  0.0000000000000000  4.1920000000000002  8.3840000000000003
  0.0000000000000000  8.3840000000000003  0.0000000000000000
  0.0000000000000000  8.3840000000000003  4.1920000000000002
  0.0000000000000000  8.3840000000000003  8.3840000000000003
  4.1920000000000002  0.0000000000000000  0.0000000000000000
  4.1920000000000002  0.0000000000000000  4.1920000000000002
  4.1920000000000002  0.0000000000000000  8.3840000000000003
  4.1920000000000002  4.1920000000000002  0.0000000000000000
  4.1920000000000002  4.1920000000000002  4.1920000000000002
  4.1920000000000002  4.1920000000000002  8.3840000000000003
  4.1920000000000002  8.3840000000000003  0.0000000000000000
  4.1920000000000002  8.3840000000000003  4.1920000000000002
  4.1920000000000002  8.3840000000000003  8.3840000000000003
  8.3840000000000003  0.0000000000000000  0.0000000000000000
  8.3840000000000003  0.0000000000000000  4.1920000000000002
  8.3840000000000003  0.0000000000000000  8.3840000000000003
  8.3840000000000003  4.1920000000000002  0.0000000000000000
  8.3840000000000003  4.1920000000000002  4.1920000000000002
  8.3840000000000003  4.1920000000000002  8.3840000000000003
  8.3840000000000003  8.3840000000000003  0.0000000000000000
  8.3840000000000003  8.3840000000000003  4.1920000000000002
  8.3840000000000003  8.3840000000000003  8.3840000000000003
  2.0960000000000001  0.0000000000000000  0.0000000000000000
  2.0960000000000001  2.0960000000000001  0.0000000000000000
  2.0960000000000001  0.0000000000000000  2.0960000000000001
  0.0000000000000000  2.0960000000000001  2.0960000000000001
  2.0960000000000001  2.0960000000000001  4.1920000000000002
  2.0960000000000001  0.0000000000000000  6.2880000000000003
  0.0000000000000000  2.0960000000000001  6.2880000000000003
  2.0960000000000001  2.0960000000000001  8.3840000000000003
  2.0960000000000001  0.0000000000000000 10.4800000000000004
  0.0000000000000000  2.0960000000000001 10.4800000000000004
  2.0960000000000001  6.2880000000000003  0.0000000000000000
  2.0960000000000001  4.1920000000000002  2.0960000000000001
  0.0000000000000000  6.2880000000000003  2.0960000000000001
  2.0960000000000001  6.2880000000000003  4.1920000000000002
  2.0960000000000001  4.1920000000000002  6.2880000000000003
  0.0000000000000000  6.2880000000000003  6.2880000000000003
  2.0960000000000001  6.2880000000000003  8.3840000000000003
  2.0960000000000001  4.1920000000000002 10.4800000000000004
  0.0000000000000000  6.2880000000000003 10.4800000000000004
  2.0960000000000001 10.4800000000000004  0.0000000000000000
  2.0960000000000001  8.3840000000000003  2.0960000000000001
  0.0000000000000000 10.4800000000000004  2.0960000000000001
  2.0960000000000001 10.4800000000000004  4.1920000000000002
  2.0960000000000001  8.3840000000000003  6.2880000000000003
  0.0000000000000000 10.4800000000000004  6.2880000000000003
  2.0960000000000001 10.4800000000000004  8.3840000000000003
  2.0960000000000001  8.3840000000000003 10.4800000000000004
  0.0000000000000000 10.4800000000000004 10.4800000000000004
  6.2880000000000003  2.0960000000000001  0.0000000000000000
  6.2880000000000003  0.0000000000000000  2.0960000000000001
  4.1920000000000002  2.0960000000000001  2.0960000000000001
  6.2880000000000003  2.0960000000000001  4.1920000000000002
  6.2880000000000003  0.0000000000000000  6.2880000000000003
  4.1920000000000002  2.0960000000000001  6.2880000000000003
  6.2880000000000003  2.0960000000000001  8.3840000000000003
  6.2880000000000003  0.0000000000000000 10.4800000000000004
  4.1920000000000002  2.0960000000000001 10.4800000000000004
  6.2880000000000003  6.2880000000000003  0.0000000000000000
  6.2880000000000003  4.1920000000000002  2.0960000000000001
  4.1920000000000002  6.2880000000000003  2.0960000000000001
  6.2880000000000003  6.2880000000000003  4.1920000000000002
  6.2880000000000003  4.1920000000000002  6.2880000000000003
  4.1920000000000002  6.2880000000000003  6.2880000000000003
  6.2880000000000003  6.2880000000000003  8.3840000000000003
  6.2880000000000003  4.1920000000000002 10.4800000000000004
  4.1920000000000002  6.2880000000000003 10.4800000000000004
  6.2880000000000003 10.4800000000000004  0.0000000000000000
  6.2880000000000003  8.3840000000000003  2.0960000000000001
  4.1920000000000002 10.4800000000000004  2.0960000000000001
  6.2880000000000003 10.4800000000000004  4.1920000000000002
  6.2880000000000003  8.3840000000000003  6.2880000000000003
  4.1920000000000002 10.4800000000000004  6.2880000000000003
  6.2880000000000003 10.4800000000000004  8.3840000000000003
  6.2880000000000003  8.3840000000000003 10.4800000000000004
  4.1920000000000002 10.4800000000000004 10.4800000000000004
 10.4800000000000004  2.0960000000000001  0.0000000000000000
 10.4800000000000004  0.0000000000000000  2.0960000000000001
  8.3840000000000003  2.0960000000000001  2.0960000000000001
 10.4800000000000004  2.0960000000000001  4.1920000000000002
 10.4800000000000004  0.0000000000000000  6.2880000000000003
  8.3840000000000003  2.0960000000000001  6.2880000000000003
 10.4800000000000004  2.0960000000000001  8.3840000000000003
 10.4800000000000004  0.0000000000000000 10.4800000000000004
  8.3840000000000003  2.0960000000000001 10.4800000000000004
 10.4800000000000004  6.2880000000000003  0.0000000000000000
 10.4800000000000004  4.1920000000000002  2.0960000000000001
  8.3840000000000003  6.2880000000000003  2.0960000000000001
 10.4800000000000004  6.2880000000000003  4.1920000000000002
 10.4800000000000004  4.1920000000000002  6.2880000000000003
  8.3840000000000003  6.2880000000000003  6.2880000000000003
 10.4800000000000004  6.2880000000000003  8.3840000000000003
 10.4800000000000004  4.1920000000000002 10.4800000000000004
  8.3840000000000003  6.2880000000000003 10.4800000000000004
 10.4800000000000004 10.4800000000000004  0.0000000000000000
 10.4800000000000004  8.3840000000000003  2.0960000000000001
  8.3840000000000003 10.4800000000000004  2.0960000000000001
 10.4800000000000004 10.4800000000000004  4.1920000000000002
 10.4800000000000004  8.3840000000000003  6.2880000000000003
  8.3840000000000003 10.4800000000000004  6.2880000000000003
 10.4800000000000004 10.4800000000000004  8.3840000000000003
 10.4800000000000004  8.3840000000000003 10.4800000000000004
  8.3840000000000003 10.4800000000000004 10.4800000000000004
  2.0960000000000001 10.4800000000000004  6.2880000000000003
  2.0960000000000001 10.4800000000000004 10.4800000000000004
  6.2880000000000003  6.2880000000000003  2.0960000000000001
  6.2880000000000003  6.2880000000000003 10.4800000000000004
 10.4800000000000004  2.0960000000000001  2.0960000000000001
 10.4800000000000004  2.0960000000000001 10.4800000000000004
 10.4800000000000004  6.2880000000000003  2.0960000000000001
 10.4800000000000004  6.2880000000000003 10.4800000000000004
 10.4800000000000004 10.4800000000000004  6.2880000000000003
 10.4800000000000004 10.4800000000000004 10.4800000000000004
  2.0960000000000001  2.0960000000000001  2.0960000000000001
  2.0960000000000001  2.0960000000000001  6.2880000000000003
  2.0960000000000001  2.0960000000000001 10.4800000000000004
  2.0960000000000001  6.2880000000000003  2.0960000000000001
  2.0960000000000001  6.2880000000000003  6.2880000000000003
  2.0960000000000001  6.2880000000000003 10.4800000000000004
  2.0960000000000001 10.4800000000000004  2.0960000000000001
  6.2880000000000003  2.0960000000000001  2.0960000000000001
  6.2880000000000003  2.0960000000000001  6.2880000000000003
  6.2880000000000003  2.0960000000000001 10.4800000000000004
  6.2880000000000003  6.2880000000000003  6.2880000000000003
  6.2880000000000003 10.4800000000000004  2.0960000000000001
  6.2880000000000003 10.4800000000000004  6.2880000000000003
  6.2880000000000003 10.4800000000000004 10.4800000000000004
 10.4800000000000004  2.0960000000000001  6.2880000000000003
 10.4800000000000004  6.2880000000000003  6.2880000000000003
 10.4800000000000004 10.4800000000000004  2.0960000000000001
